n = 10;
grid = array2d(1..n, 1..n,
[
_,0,_,0,_,_,_,1,_,_,
1,_,_,_,1,_,_,_,_,_,
_,0,_,0,_,_,_,_,_,_,
_,_,1,_,_,1,_,_,0,_,
_,_,_,0,_,_,_,1,_,_,
1,_,_,0,_,0,_,_,_,_,
_,_,1,_,_,_,_,0,_,0,
_,_,0,1,_,_,_,_,1,_,
1,_,_,_,_,_,0,_,_,_,
1,_,0,_,_,_,_,_,_,1
]);